NAME : amz2630.126257_126257.tour
COMMENT : Cost = 126257_126257
COMMENT : Found by LKH-AMZ [Keld Helsgaun] Sun May 11 15:18:16 2025
COMMENT : TW viol.: 0 #: 0
TYPE : TOUR
DIMENSION : 155
TOUR_SECTION
123
12
147
48
26
29
70
93
129
40
118
28
67
81
95
111
122
47
52
80
108
54
126
119
79
116
104
88
2
114
74
143
61
134
113
97
1
128
141
15
91
36
146
49
8
18
99
33
103
142
65
10
107
78
155
53
127
31
131
76
24
102
144
62
46
153
27
100
150
140
21
84
92
16
138
109
60
44
75
149
133
7
105
152
148
14
11
19
89
85
83
137
145
101
5
106
120
112
39
25
50
51
87
3
43
130
135
38
98
64
117
35
121
82
63
41
32
139
86
151
115
94
37
34
55
69
154
136
30
96
58
42
4
56
9
71
59
6
13
20
22
110
66
124
57
90
125
72
77
17
68
23
132
73
45
-1
EOF
